<number of tasks>
50

<cycle time>
1000

<order strength>
0.2


<task times>
1 510
2 540
3 440
4 483
5 409
6 442
7 386
8 538
9 645
10 710
11 496
12 486
13 581
14 563
15 551
16 382
17 636
18 692
19 439
20 492
21 395
22 482
23 310
24 412
25 412
26 391
27 441
28 367
29 347
30 595
31 417
32 778
33 482
34 499
35 425
36 404
37 336
38 516
39 551
40 670
41 421
42 722
43 572
44 404
45 448
46 361
47 501
48 582
49 504
50 395

<precedence relations>
1,23
2,23
3,9
4,10
5,11
5,12
5,13
5,14
5,15
6,7
6,8
7,23
8,23
9,19
10,17
11,16
11,18
13,20
14,22
15,21
16,23
17,25
18,24
19,26
20,27
21,28
23,29
23,30
23,31
23,32
24,33
25,34
27,35
30,37
30,38
32,39
33,36
36,41
37,40
37,44
38,43
38,45
39,42
40,46
41,47
43,48
43,50
45,49

<end>
